CMD:
./solvers/bin/cadical --plain --no-reduce -t 1600 ./data/cnfs//6s339rb22/6s339rb22.61.cnf

c --- [ banner ] -------------------------------------------------------------
c 
c CaDiCaL SAT Solver
c Copyright (c) 2016-2024
c A. Biere, M. Fleury, N. Froleyks, K. Fazekas, F. Pollitt, T. Faller
c JKU Linz, University of Freiburg, TU Wien
c 
c Version 2.1.3 5296d3d2a9bf48c154ab2acb5e44625776d821bf
c g++ (Gentoo 12.3.1_p20230526 p2) 12.3.1 20230526 -Wall -Wextra -O3 -DNDEBUG
c Sat Aug 9 07:26:21 PDT 2025 Linux cedar2.int.cedar.computecanada.ca 5.14.0-362.24.2.el9_3.x86_64 x86_64
c 
c --- [ limit ] --------------------------------------------------------------
c 
c setting time limit to 1600 seconds real time (due to '-t 1600')
c 
c --- [ parsing input ] ------------------------------------------------------
c 
c reading DIMACS file from './data/cnfs//6s339rb22/6s339rb22.61.cnf'
c opening file to read './data/cnfs//6s339rb22/6s339rb22.61.cnf'
c found 'p cnf 619956 1747700' header
c parsed 1747700 clauses in 0.27 seconds process time
c 
c --- [ options ] ------------------------------------------------------------
c 
c   --compact=false                (different from default 'true')
c   --decompose=false              (different from default 'true')
c   --deduplicate=false            (different from default 'true')
c   --elim=false                   (different from default 'true')
c   --probe=false                  (different from default 'true')
c   --reduce=false                 (different from default 'true')
c   --subsume=false                (different from default 'true')
c   --ternary=false                (different from default 'true')
c   --transred=false               (different from default 'true')
c   --vivify=false                 (different from default 'true')
c 
c --- [ solving ] ------------------------------------------------------------
c 
c time measured in process time since initialization
c 
c  seconds   reductions  redundant   irredundant
c          MB    restarts       trail        variables
c           level   conflicts       glue           remaining
c 
c *  0.27 237  0 0   0    0    0  0% 0 1294615 383309 62%
c {  0.37 242  0 0   0    0    0  0% 0 1294615 383309 62%
c i  0.39 242 235 0   1   68   64 42% 3 1294615 383303 62%
c i  0.39 242 202 0   1   79   68 41% 3 1294615 383296 62%
c i  0.39 242 194 0   1   82   70 41% 3 1294615 383289 62%
c i  0.39 242 187 0   1   85   71 41% 3 1294615 383282 62%
c i  0.39 242 181 0   1   88   72 41% 3 1294615 383253 62%
c i  0.39 242 177 0   1   90   73 41% 3 1294615 383240 62%
c i  0.39 242 169 0   1   94   76 41% 3 1294615 383237 62%
c i  0.39 242 167 0   1   95   76 41% 3 1294615 383236 62%
c i  0.39 242 165 0   1   96   76 41% 2 1294615 383234 62%
c i  0.39 242 164 0   1   97   76 41% 2 1294615 383233 62%
c i  0.39 242 162 0   1   98   76 41% 2 1294615 383230 62%
c i  0.39 242 160 0   1   99   76 41% 2 1294615 383229 62%
c i  0.39 242 159 0   1  100   76 41% 2 1294615 383227 62%
c i  0.39 242 157 0   1  101   76 41% 2 1294615 383226 62%
c i  0.39 242 155 0   1  102   76 41% 2 1294615 382901 62%
c i  0.39 242 152 0   1  104   77 40% 2 1294615 382791 62%
c i  0.39 242 148 0   1  109   80 40% 2 1294615 382790 62%
c i  0.39 242 148 0   1  110   80 41% 2 1294615 382789 62%
c 
c  seconds    reductions  redundant   irredundant
c          MB     restarts       trail        variables
c            level   conflicts       glue           remaining
c 
c i  0.39 242 148 0   1  111   80 41% 2 1294615 382788 62%
c i  0.40 242 147 0   1  114   82 41% 2 1294615 382771 62%
c i  0.40 242 147 0   1  115   82 41% 2 1294615 382748 62%
c i  0.40 242 147 0   1  116   82 41% 2 1294615 382741 62%
c i  0.40 242 147 0   1  121   86 41% 2 1294615 382488 62%
c i  0.41 242 152 0   4  157  116 42% 3 1294615 382325 62%
c i  0.41 242 150 0   5  160  118 42% 3 1294615 382318 62%
c i  0.41 242 142 0   5  170  126 42% 2 1294615 382311 62%
c i  0.41 242 141 0   5  171  126 42% 2 1294615 382305 62%
c i  0.41 242 137 0   5  176  129 42% 2 1294615 382298 62%
c i  0.42 243 114 0  12  234  173 41% 3 1294615 382290 62%
c i  0.42 243 110 0  12  241  179 41% 3 1294615 382283 62%
c i  0.42 243 110 0  12  243  180 41% 3 1294615 382276 62%
c i  0.43 243 100 0  12  272  198 41% 3 1294615 382269 62%
c i  0.43 243 100 0  12  273  198 41% 2 1294615 382258 62%
c i  0.44 243 86 0  15  327  243 41% 3 1294615 382250 62%
c i  0.45 243 87 0  16  331  246 41% 3 1294615 381762 62%
c i  0.47 243 84 0  22  353  267 41% 3 1294615 381755 62%
c i  0.47 243 83 0  24  360  273 41% 3 1294615 381752 62%
c i  0.47 243 83 0  24  361  273 41% 3 1294615 381751 62%
c 
c  seconds   reductions  redundant   irredundant
c          MB    restarts       trail        variables
c           level   conflicts       glue           remaining
c 
c i  0.47 243 82 0  24  362  273 41% 3 1294615 381749 62%
c i  0.47 243 82 0  24  363  273 41% 3 1294615 381748 62%
c i  0.47 243 82 0  24  364  273 41% 3 1294615 381745 62%
c i  0.47 243 82 0  24  365  273 41% 3 1294615 381744 62%
... skipped 28 lines ...
c i  0.51 243 53 0  30  732  573 40% 2 1294615 380689 61%
c i  0.51 243 53 0  30  747  586 40% 2 1294615 380682 61%
c i  0.51 243 53 0  32  753  590 40% 2 1294615 380675 61%
c i  0.51 243 53 0  32  755  591 40% 2 1294615 380670 61%
c i  0.51 243 52 0  32  772  606 40% 2 1294615 380663 61%
c i  0.51 243 52 0  32  777  609 40% 2 1294615 380661 61%
c i  0.51 243 52 0  32  781  612 40% 2 1294615 380651 61%
c i  0.51 243 52 0  32  782  612 40% 2 1294615 380644 61%
c i  0.51 243 51 0  32  793  622 40% 2 1294615 380638 61%
c i  0.52 243 49 0  32  854  669 40% 2 1294615 380629 61%
c i  0.52 243 49 0  32  855  669 40% 2 1294615 380628 61%
c i  0.52 243 48 0  34  890  699 40% 2 1294615 380594 61%
c i  0.52 243 47 0  40  909  717 40% 2 1294615 380493 61%
c 
c  seconds   reductions  redundant   irredundant
c          MB    restarts       trail        variables
c           level   conflicts       glue           remaining
c 
c }  0.54 243 46 0  43 1001  802 40% 2 1294615 380493 61%
c [  0.54 243  0 0  43 1001  802  0% 0 1294615 380493 61%
c O  0.61 243 13182 0  43 1002  803 77% 3 1294615 380493 61%
c i  1.14 243 6845 0  44 2875 2506 60% 7 1294615 380471 61%
c ]  1.23 243 6589 0  44 3001 2618 60% 7 1294615 380471 61%
c {  1.23 243 46 0  44 3001 2618 40% 2 1294615 380471 61%
c F  1.23 243 46 0  44 3004 2621 40% 2 1294615 380456 61%
c i  1.24 243 45 0  47 3029 2642 40% 2 1294615 380443 61%
c i  1.24 243 45 0  48 3033 2645 40% 2 1294615 380425 61%
c i  1.24 243 45 0  51 3046 2657 40% 2 1294615 380419 61%
c i  1.27 244 40 0  98 3232 2826 40% 3 1294615 380368 61%
c i  1.27 244 40 0  98 3234 2827 40% 3 1294615 380317 61%
c i  1.28 244 40 0 105 3267 2856 40% 3 1294615 380256 61%
c i  1.29 244 38 0 110 3323 2895 40% 3 1294615 380243 61%
c i  1.29 244 38 0 111 3334 2897 40% 3 1294615 380197 61%
c i  1.29 244 38 0 112 3335 2897 40% 3 1294615 380189 61%
c i  1.29 244 38 0 116 3355 2916 40% 3 1294615 380176 61%
c i  1.29 244 38 0 116 3356 2916 40% 3 1294615 380169 61%
c i  1.32 244 33 0 178 3628 3128 40% 3 1294615 376772 61%
c i  1.33 244 32 0 197 3712 3186 40% 3 1294615 376277 61%
c 
c  seconds   reductions  redundant   irredundant
c          MB    restarts       trail        variables
c           level   conflicts       glue           remaining
c 
c i  1.33 244 32 0 197 3716 3189 40% 3 1294615 376252 61%
c i  1.33 244 31 0 197 3727 3197 40% 3 1294615 375111 61%
c i  1.33 244 31 0 197 3730 3199 40% 3 1294615 374505 60%
c }  1.33 244 31 0 197 3732 3199 40% 3 1294615 372165 60%
c 0  1.33 244 31 0 197 3732 3199 40% 3 1294615 372165 60%
c 
c --- [ result ] -------------------------------------------------------------
c 
s UNSATISFIABLE
c 
c --- [ run-time profiling ] -------------------------------------------------
c 
c process time taken by individual solving procedures
c (percentage relative to process time for solving)
c 
c         1.06   99.99% search
c         0.69   65.01% stable
c         0.27   25.04% parse
c         0.26   24.87% unstable
c         0.11   10.10% lucky
c         0.00    0.00% simplify
c   =================================
c         1.06   79.94% solve
c 
c last line shows process time for solving
c (percentage relative to total process time)
c 
c --- [ statistics ] ---------------------------------------------------------
c 
c chronological:              1236        33.12 %  of conflicts
c conflicts:                  3732      3506.05    per second
c decisions:                 46120     43327.74    per second
c fixed:                    243043        39.20 %  of all variables
c learned:                    3545        94.99 %  per conflict
c learned_lits:              49265       100.00 %  learned literals
c minimized:                     0         0.00 %  learned literals
c shrunken:                   6104        12.39 %  learned literals
c minishrunken:               3099         6.29 %  learned literals
c otfs:                         73         1.96 %  of conflict
c propagations:           11172371        10.50 M  per second
c rephased:                      2      1866.00    interval
c restarts:                    197        18.94    interval
c stabilizing:                   1        53.59 %  of conflicts
c subsumed:                    249         0.02 %  of all clauses
c strengthened:                 73         0.01 %  of all clauses
c 
c seconds are measured in process time for solving
c 
c --- [ resources ] ----------------------------------------------------------
c 
c total process time since initialization:         1.33    seconds
c total real time since initialization:            1.34    seconds
c maximum resident set size of process:          241.96    MB
c 
c --- [ shutting down ] ------------------------------------------------------
c 
c exit 20
